NAME: n40q40E.tsp, 40 nodes, semilla 444
COMMENT: Problema aleatorio de norma euclidea
DIMENSION: 40
CAPACITY: 40
EDGE_WEIGHT_TYPE: EUC_2D
NODE_COORD_SECTION
1   0.0000   0.0000
2 152.0000 -11.0000
3 -319.0000 -425.0000
4  62.0000 -493.0000
5  28.0000 -462.0000
6 115.0000  65.0000
7 390.0000 220.0000
8 319.0000 -96.0000
9  54.0000 190.0000
10 -415.0000 -149.0000
11 142.0000 -95.0000
12 -352.0000 -79.0000
13 -72.0000  67.0000
14 491.0000 -385.0000
15 -319.0000 425.0000
16  12.0000 421.0000
17 157.0000 -354.0000
18 338.0000 336.0000
19 -477.0000 243.0000
20 495.0000 361.0000
21 -326.0000 424.0000
22 -377.0000 259.0000
23  12.0000 -215.0000
24 434.0000 386.0000
25 450.0000 -292.0000
26 -340.0000 467.0000
27 161.0000 210.0000
28 243.0000  -2.0000
29 115.0000 365.0000
30 -280.0000 -301.0000
31 -176.0000 -191.0000
32 -126.0000  36.0000
33 367.0000 -115.0000
34 -177.0000 -489.0000
35 200.0000  52.0000
36 461.0000 -200.0000
37 -444.0000 471.0000
38 296.0000 124.0000
39 -273.0000 485.0000
40 -100.0000 -200.0000
DISPLAY_DATA_SECTION:
 1  250  250
 2  326  244
 3   90   37
 4  281    3
 5  264   19
 6  307  282
 7  445  360
 8  409  202
 9  277  345
10   42  175
11  321  202
12   74  210
13  214  283
14  495   57
15   90  462
16  256  460
17  328   73
18  419  418
19   11  371
20  497  430
21   87  462
22   61  379
23  256  142
24  467  443
25  475  104
26   80  483
27  330  355
28  371  249
29  307  432
30  110   99
31  162  154
32  187  268
33  433  192
34  161    5
35  350  276
36  480  150
37   28  485
38  398  312
39  113  492
40  200  150
DEMAND_SECTION
1 -1
2 0
3 1
4 7
5 -1
6 -1
7 4
8 6
9 9
10 -10
11 0
12 0
13 6
14 2
15 7
16 -2
17 -8
18 0
19 -5
20 2
21 0
22 4
23 -3
24 -4
25 -1
26 7
27 0
28 -10
29 6
30 -10
31 5
32 1
33 -10
34 7
35 3
36 -5
37 -6
38 7
39 -7
40 0
EOF